p cnf 18 129
1 4 7 10 13 16 0
2 5 8 11 14 17 0
3 6 9 12 15 18 0
-2 -1 0
-3 -1 0
-3 -2 0
-5 -4 0
-6 -4 0
-6 -5 0
-8 -7 0
-9 -7 0
-9 -8 0
-11 -10 0
-12 -10 0
-12 -11 0
-14 -13 0
-15 -13 0
-15 -14 0
-17 -16 0
-18 -16 0
-18 -17 0
-1 -4 0
-1 -7 0
-1 -10 0
-1 -13 0
-1 -16 0
-4 -7 0
-4 -10 0
-4 -13 0
-4 -16 0
-7 -10 0
-7 -13 0
-7 -16 0
-10 -13 0
-10 -16 0
-13 -16 0
-2 -5 0
-2 -8 0
-2 -11 0
-2 -14 0
-2 -17 0
-5 -8 0
-5 -11 0
-5 -14 0
-5 -17 0
-8 -11 0
-8 -14 0
-8 -17 0
-11 -14 0
-11 -17 0
-14 -17 0
-3 -6 0
-3 -9 0
-3 -12 0
-3 -15 0
-3 -18 0
-6 -9 0
-6 -12 0
-6 -15 0
-6 -18 0
-9 -12 0
-9 -15 0
-9 -18 0
-12 -15 0
-12 -18 0
-15 -18 0
-1 -10 0
-1 -11 0
-1 -12 0
-2 -10 0
-2 -11 0
-2 -12 0
-3 -10 0
-3 -11 0
-3 -12 0
-7 -10 0
-7 -11 0
-7 -12 0
-8 -10 0
-8 -11 0
-8 -12 0
-9 -10 0
-9 -11 0
-9 -12 0
-7 -13 0
-7 -14 0
-7 -15 0
-8 -13 0
-8 -14 0
-8 -15 0
-9 -13 0
-9 -14 0
-9 -15 0
-7 -16 0
-7 -17 0
-7 -18 0
-8 -16 0
-8 -17 0
-8 -18 0
-9 -16 0
-9 -17 0
-9 -18 0
-10 -13 0
-10 -14 0
-10 -15 0
-11 -13 0
-11 -14 0
-11 -15 0
-12 -13 0
-12 -14 0
-12 -15 0
-10 -16 0
-10 -17 0
-10 -18 0
-11 -16 0
-11 -17 0
-11 -18 0
-12 -16 0
-12 -17 0
-12 -18 0
-13 -16 0
-13 -17 0
-13 -18 0
-14 -16 0
-14 -17 0
-14 -18 0
-15 -16 0
-15 -17 0
-15 -18 0
